HUN,8,6,168
2,14,0,29,1,21,5,8,4,30,3,4
1,12,0,11,2,27,4,16,3,26,5,22
0,7,2,23,1,19,5,10,4,5,3,13
2,8,0,7,1,23,4,20,5,14,3,18
0,11,2,24,1,15,3,13,4,25,5,19
0,20,1,30,2,7,3,21,5,17,4,23
0,21,1,28,2,23,5,27,4,4,3,14
1,12,0,1,2,6,4,20,3,20,5,28
